20
62
20
89
56
42
68
92
76
64
8
36
43
14
43
0
9
67
59
73
58
57
18
0 2
0 5
0 8
0 10
0 11
0 12
0 16
0 19
1 2
1 3
1 12
2 3
2 7
2 9
2 11
2 12
2 16
2 17
2 18
2 19
3 5
3 15
3 19
4 9
4 12
4 13
4 14
4 16
5 10
5 16
5 17
6 7
6 8
6 13
6 15
7 8
7 11
7 14
7 18
8 12
8 13
8 18
9 10
9 16
9 19
10 11
10 13
10 18
11 14
11 16
11 18
12 14
13 17
13 19
14 16
14 17
14 18
14 19
15 19
16 19
17 18
17 19
0
9
4
3
18
8
19
7
15
5
6
2
12
14
10
16
17
13
1
11
